p cnf 22 54
a 8 12 0
e 1 2 3 4 5 6 7 9 10 11 13 14 15 16 17 18 19 20 21 22 0
3 -1 0
3 2 0
1 -2 -3 0
3 4 -5 0
-3 -4 -5 0
3 -4 5 0
-3 4 5 0
-6 -5 0
-6 -2 0
5 2 6 0
-4 7 -8 0
4 -7 -8 0
-4 -7 8 0
4 7 8 0
-6 -8 -9 0
6 8 -9 0
-6 8 9 0
6 -8 9 0
12 -10 0
12 11 0
10 -11 -12 0
13 5 0
13 12 0
-5 -12 -13 0
9 -13 -14 0
-9 13 -14 0
9 13 14 0
-9 -13 14 0
-12 -15 -16 0
12 15 -16 0
-12 15 16 0
12 -15 16 0
18 -4 0
18 -17 0
4 17 -18 0
-19 -10 0
-19 17 0
10 -17 19 0
20 18 0
20 19 0
-18 -19 -20 0
16 20 -21 0
-16 -20 -21 0
16 -20 21 0
-16 20 21 0
-22 14 0
-22 21 0
-14 -21 22 0
-14 17 -8 -19 -22 -11 6 0
-8 -12 10 -5 7 0
-10 -1 18 -11 0
-13 21 -7 -18 15 11 0
-2 -12 -11 7 16 -10 4 18 0
22 0
